
Gurobi 9.1.1 (linux64) logging started Thu Oct 21 00:25:05 2021

Changed value of parameter LogFile to results/max3cut_numv169/max3cut_numv169_spinglass2g_1313_A-MILO_log.txt
   Prev:   Default: 
Gurobi Optimizer version 9.1.1 build v9.1.1rc0 (linux64)
Thread count: 20 physical cores, 40 logical processors, using up to 10 threads
Optimize a model with 3549 rows, 845 columns and 9971 nonzeros
Model fingerprint: 0x8aebbbe3
Variable types: 0 continuous, 845 integer (845 binary)
Coefficient statistics:
  Matrix range     [1e+00, 1e+00]
  Objective range  [4e+02, 3e+05]
  Bounds range     [1e+00, 1e+00]
  RHS range        [1e+00, 2e+00]
Found heuristic solution: objective 41826.000000
Presolve removed 375 rows and 7 columns
Presolve time: 0.01s
Presolved: 3174 rows, 838 columns, 9522 nonzeros
Crushed 0 out of 338 user cuts to presolved model
Variable types: 0 continuous, 838 integer (838 binary)

Root relaxation: objective 1.460675e+07, 588 iterations, 0.02 seconds

    Nodes    |    Current Node    |     Objective Bounds      |     Work
 Expl Unexpl |  Obj  Depth IntInf | Incumbent    BestBd   Gap | It/Node Time

     0     0 1.4607e+07    0  296 41826.0000 1.4607e+07      -     -    0s
H    0     0                    7257360.0000 1.4607e+07   101%     -    0s
H    0     0                    7554056.0000 1.4607e+07  93.4%     -    0s
H    0     0                    8019070.0000 1.4607e+07  82.2%     -    0s
H    0     0                    8258767.0000 1.4607e+07  76.9%     -    0s
H    0     0                    8641006.0000 1.4607e+07  69.0%     -    0s
H    0     0                    8764106.0000 1.4607e+07  66.7%     -    0s
     0     0 1.4566e+07    0  332 8764106.00 1.4566e+07  66.2%     -    0s
H    0     0                    8879187.0000 1.4566e+07  64.0%     -    0s
H    0     0                    1.003922e+07 1.4566e+07  45.1%     -    0s
     0     0 1.4563e+07    0  342 1.0039e+07 1.4563e+07  45.1%     -    0s
H    0     0                    1.140108e+07 1.4563e+07  27.7%     -    0s
     0     0 1.4396e+07    0  490 1.1401e+07 1.4396e+07  26.3%     -    0s
H    0     0                    1.143801e+07 1.4396e+07  25.9%     -    0s
     0     0 1.4387e+07    0  493 1.1438e+07 1.4387e+07  25.8%     -    0s
H    0     0                    1.173853e+07 1.4387e+07  22.6%     -    0s
H    0     0                    1.231160e+07 1.4387e+07  16.9%     -    0s
     0     0 1.4185e+07    0  495 1.2312e+07 1.4185e+07  15.2%     -    0s
H    0     0                    1.252207e+07 1.4185e+07  13.3%     -    0s
     0     0 1.4161e+07    0  501 1.2522e+07 1.4161e+07  13.1%     -    0s
     0     0 1.4158e+07    0  503 1.2522e+07 1.4158e+07  13.1%     -    0s
     0     0 1.4157e+07    0  501 1.2522e+07 1.4157e+07  13.1%     -    0s
     0     0 1.4029e+07    0  512 1.2522e+07 1.4029e+07  12.0%     -    0s
     0     0 1.4023e+07    0  505 1.2522e+07 1.4023e+07  12.0%     -    0s
     0     0 1.4022e+07    0  505 1.2522e+07 1.4022e+07  12.0%     -    0s
     0     0 1.4022e+07    0  505 1.2522e+07 1.4022e+07  12.0%     -    0s
H    0     0                    1.260251e+07 1.4022e+07  11.3%     -    0s
     0     0 1.4002e+07    0  517 1.2603e+07 1.4002e+07  11.1%     -    0s
H    0     0                    1.263049e+07 1.4002e+07  10.9%     -    0s
     0     0 1.4001e+07    0  510 1.2630e+07 1.4001e+07  10.9%     -    0s
     0     0 1.4001e+07    0  513 1.2630e+07 1.4001e+07  10.8%     -    0s
     0     0 1.4001e+07    0  518 1.2630e+07 1.4001e+07  10.8%     -    0s
H    0     0                    1.269868e+07 1.4001e+07  10.3%     -    0s
H    0     0                    1.276003e+07 1.4001e+07  9.72%     -    0s
     0     0 1.3989e+07    0  509 1.2760e+07 1.3989e+07  9.63%     -    0s
     0     0 1.3981e+07    0  514 1.2760e+07 1.3981e+07  9.57%     -    0s
     0     0 1.3981e+07    0  523 1.2760e+07 1.3981e+07  9.57%     -    0s
     0     0 1.3981e+07    0  524 1.2760e+07 1.3981e+07  9.57%     -    0s
     0     0 1.3981e+07    0  526 1.2760e+07 1.3981e+07  9.57%     -    0s
H    0     0                    1.281047e+07 1.3981e+07  9.13%     -    0s
H    0     0                    1.287542e+07 1.3981e+07  8.58%     -    0s
     0     0 1.3978e+07    0  515 1.2875e+07 1.3978e+07  8.56%     -    0s
H    0     0                    1.301582e+07 1.3978e+07  7.39%     -    0s
     0     0 1.3978e+07    0  517 1.3016e+07 1.3978e+07  7.39%     -    0s
     0     0 1.3971e+07    0  530 1.3016e+07 1.3971e+07  7.34%     -    0s
H    0     0                    1.301783e+07 1.3971e+07  7.32%     -    0s
     0     0 1.3970e+07    0  524 1.3018e+07 1.3970e+07  7.31%     -    0s
     0     0 1.3970e+07    0  523 1.3018e+07 1.3970e+07  7.31%     -    0s
     0     0 1.3969e+07    0  522 1.3018e+07 1.3969e+07  7.31%     -    0s
     0     0 1.3969e+07    0  523 1.3018e+07 1.3969e+07  7.31%     -    0s
     0     0 1.3954e+07    0  530 1.3018e+07 1.3954e+07  7.20%     -    0s
     0     0 1.3953e+07    0  533 1.3018e+07 1.3953e+07  7.18%     -    0s
     0     0 1.3953e+07    0  533 1.3018e+07 1.3953e+07  7.18%     -    0s
     0     0 1.3952e+07    0  536 1.3018e+07 1.3952e+07  7.18%     -    0s
     0     0 1.3952e+07    0  538 1.3018e+07 1.3952e+07  7.18%     -    0s
     0     0 1.3943e+07    0  534 1.3018e+07 1.3943e+07  7.11%     -    0s
H    0     0                    1.303300e+07 1.3943e+07  6.98%     -    0s
     0     0 1.3940e+07    0  532 1.3033e+07 1.3940e+07  6.96%     -    0s
     0     0 1.3940e+07    0  537 1.3033e+07 1.3940e+07  6.96%     -    0s
     0     0 1.3940e+07    0  539 1.3033e+07 1.3940e+07  6.96%     -    0s
     0     0 1.3939e+07    0  537 1.3033e+07 1.3939e+07  6.95%     -    0s
H    0     0                    1.303338e+07 1.3939e+07  6.95%     -    0s
     0     0 1.3939e+07    0  540 1.3033e+07 1.3939e+07  6.95%     -    0s
     0     0 1.3939e+07    0  540 1.3033e+07 1.3939e+07  6.95%     -    0s
H    0     0                    1.304568e+07 1.3939e+07  6.85%     -    0s
     0     0 1.3939e+07    0  542 1.3046e+07 1.3939e+07  6.85%     -    0s
     0     0 1.3939e+07    0  542 1.3046e+07 1.3939e+07  6.84%     -    1s
     0     0 1.3939e+07    0  531 1.3046e+07 1.3939e+07  6.84%     -    1s
     0     2 1.3939e+07    0  520 1.3046e+07 1.3939e+07  6.84%     -    1s
H   35    46                    1.304659e+07 1.3870e+07  6.31%   135    1s
H   38    46                    1.306604e+07 1.3870e+07  6.15%   127    1s
H   40    46                    1.310779e+07 1.3870e+07  5.82%   125    1s
H   43    46                    1.314810e+07 1.3870e+07  5.49%   125    1s
H   44    46                    1.315444e+07 1.3870e+07  5.44%   127    1s
H   70    86                    1.318386e+07 1.3870e+07  5.21%   117    1s
H   76    86                    1.330952e+07 1.3870e+07  4.21%   113    1s
H  118   136                    1.334764e+07 1.3870e+07  3.91%   107    1s
H  120   136                    1.334810e+07 1.3870e+07  3.91%   110    1s
H  169   163                    1.335551e+07 1.3870e+07  3.85%   100    1s
H  190   178                    1.335571e+07 1.3870e+07  3.85%   102    1s
*  252   227              27    1.342651e+07 1.3870e+07  3.30%   100    1s
H  266   229                    1.346360e+07 1.3870e+07  3.02%  96.3    2s
H  288   240                    1.347158e+07 1.3836e+07  2.70%  92.3    2s
H  291   240                    1.347981e+07 1.3836e+07  2.64%  92.4    2s
H  295   240                    1.352525e+07 1.3836e+07  2.29%  91.8    2s
H  445   324                    1.352896e+07 1.3836e+07  2.27%  85.7    2s
  2117  1028 1.3534e+07   15  371 1.3529e+07 1.3785e+07  1.89%  70.6    5s
  3382  1527 1.3567e+07   15  501 1.3529e+07 1.3593e+07  0.47%  69.3   10s

Cutting planes:
  Gomory: 13
  MIR: 5
  Flow cover: 42
  Inf proof: 2
  Zero half: 91
  RLT: 23

Explored 3545 nodes (265458 simplex iterations) in 11.95 seconds
Thread count was 10 (of 40 available processors)

Solution count 10: 1.3529e+07 1.35252e+07 1.34798e+07 ... 1.33476e+07

Optimal solution found (tolerance 0.00e+00)
Best objective 1.352895500000e+07, best bound 1.352895500000e+07, gap 0.0000%
